
******************************************************************************
This program contains Ipopt, a library for large-scale nonlinear optimization.
 Ipopt is released as open source code under the Eclipse Public License (EPL).
         For more information visit http://projects.coin-or.org/Ipopt

This version of Ipopt was compiled from source code available at
    https://github.com/IDAES/Ipopt as part of the Institute for the Design of
    Advanced Energy Systems Process Systems Engineering Framework (IDAES PSE
    Framework) Copyright (c) 2018-2019. See https://github.com/IDAES/idaes-pse.

This version of Ipopt was compiled using HSL, a collection of Fortran codes
    for large-scale scientific computation.  All technical papers, sales and
    publicity material resulting from use of the HSL codes within IPOPT must
    contain the following acknowledgement:
        HSL, a collection of Fortran codes for large-scale scientific
        computation. See http://www.hsl.rl.ac.uk.
******************************************************************************

This is Ipopt version 3.13.2, running with linear solver ma27.

Number of nonzeros in equality constraint Jacobian...:     1172
Number of nonzeros in inequality constraint Jacobian.:        0
Number of nonzeros in Lagrangian Hessian.............:     1333

Total number of variables............................:      465
                     variables with only lower bounds:      124
                variables with lower and upper bounds:      279
                     variables with only upper bounds:        0
Total number of equality constraints.................:      462
Total number of inequality constraints...............:        0
        inequality constraints with only lower bounds:        0
   inequality constraints with lower and upper bounds:        0
        inequality constraints with only upper bounds:        0

iter    objective    inf_pr   inf_du lg(mu)  ||d||  lg(rg) alpha_du alpha_pr  ls
   0  0.0000000e+00 1.89e+00 2.58e-14  -1.0 0.00e+00    -  0.00e+00 0.00e+00   0
   1  3.1952902e+00 1.56e+00 4.02e+05  -1.0 5.47e+06    -  2.63e-02 3.84e-02h  3
   2  4.7231520e+00 1.54e+00 3.99e+05  -1.0 6.45e+06    -  2.43e-02 6.12e-03h  5
   3  6.0106536e+00 1.54e+00 3.86e+05  -1.0 9.48e+06    -  2.11e-02 4.36e-03h  5
   4  7.4479571e+00 1.53e+00 3.70e+05  -1.0 1.32e+07    -  1.97e-02 3.92e-03h  5
   5  1.0758174e+01 1.52e+00 3.96e+05  -1.0 1.86e+07    -  1.68e-02 5.96e-03h  4
   6  5.3748235e+01 1.48e+00 2.75e+06  -1.0 2.74e+07    -  1.09e-02 2.12e-02h  2
   7  5.9348908e+01 1.47e+00 2.73e+06  -1.0 1.91e+07    -  4.27e-02 2.52e-03h  6
   8  5.9455434e+01 1.47e+00 2.73e+06  -1.0 4.83e+07    -  7.14e-03 2.18e-04h  7
   9  5.9980034e+01 1.47e+00 2.72e+06  -1.0 2.37e+07    -  1.33e-02 4.38e-04h  7
iter    objective    inf_pr   inf_du lg(mu)  ||d||  lg(rg) alpha_du alpha_pr  ls
  10  6.1175350e+01 1.47e+00 2.72e+06  -1.0 1.67e+07    -  1.97e-02 7.76e-04h  7
  11  3.5151171e+02 1.17e+02 3.28e+08  -1.0 1.50e+07    -  2.26e-02 7.23e-02w  1
  12  4.6930465e+02 1.10e+02 1.32e+09  -1.0 1.42e+07  -4.0 1.59e-01 5.50e-02w  1
  13  4.6814798e+02 1.10e+02 1.32e+09  -1.0 9.37e+06  -4.5 2.04e-01 3.65e-03w  1
  14  6.3092834e+01 1.47e+00 2.71e+06  -1.0 2.03e+07  -0.4 2.26e-02 1.13e-03h  6
  15  6.5549680e+01 1.47e+00 2.70e+06  -1.0 1.54e+07    -  2.40e-02 1.38e-03h  7
  16  6.8344398e+01 1.46e+00 2.68e+06  -1.0 1.69e+07    -  3.15e-02 1.52e-03h  7
  17  7.1598891e+01 1.46e+00 2.66e+06  -1.0 1.89e+07    -  3.06e-02 1.69e-03h  7
  18  7.3257926e+01 1.46e+00 2.66e+06  -1.0 2.27e+07    -  4.97e-02 8.58e-04h  8
  19  7.3866281e+01 1.46e+00 2.66e+06  -1.0 2.23e+07    -  5.87e-02 2.80e-04h 10
iter    objective    inf_pr   inf_du lg(mu)  ||d||  lg(rg) alpha_du alpha_pr  ls
  20  7.4867707e+01 1.46e+00 2.66e+06  -1.0 3.16e+07    -  4.56e-02 2.91e-04h 10
  21  2.2350017e+02 1.58e+00 4.56e+06  -1.0 4.25e+07    -  3.52e-02 2.25e-02h  2
  22  4.4288531e+02 1.67e+00 5.37e+06  -1.0 5.69e+07    -  5.94e-02 1.60e-02h  2
  23  9.6473476e+02 1.76e+00 6.89e+06  -1.0 7.25e+07    -  1.00e-01 2.09e-02h  1
  24  9.7000166e+02 1.76e+00 6.89e+06  -1.0 1.19e+08    -  5.06e-02 1.14e-04h  1
  25  9.7494791e+02 1.76e+00 6.89e+06  -1.0 9.84e+07    -  1.32e-01 1.22e-04h  1
  26  2.6912503e+03 1.94e+00 2.93e+07  -1.0 1.04e+08    -  4.45e-02 2.94e-02h  2
  27  7.8695319e+03 2.11e+00 1.05e+08  -1.0 2.01e+08    -  7.98e-02 2.75e-02h  2
  28  1.4316418e+04 2.13e+00 1.28e+08  -1.0 4.73e+08    -  3.81e-02 1.04e-02h  3
  29  3.3373258e+04 2.15e+00 9.94e+07  -1.0 9.15e+08    -  3.07e-02 1.18e-02h  2
iter    objective    inf_pr   inf_du lg(mu)  ||d||  lg(rg) alpha_du alpha_pr  ls
  30  3.4071022e+04 2.15e+00 1.01e+08  -1.0 4.87e+08    -  2.92e-02 1.34e-03h  2
  31  3.8380359e+04 2.15e+00 1.19e+08  -1.0 6.86e+08    -  2.99e-02 2.45e-03h  1
  32  3.8411212e+04 2.15e+00 1.19e+08  -1.0 1.03e+09    -  3.17e-02 1.03e-05H  1
  33r 3.8411212e+04 2.15e+00 1.00e+03   0.3 0.00e+00    -  0.00e+00 3.58e-07R 11
  34r 3.8411213e+04 2.15e+00 9.97e+02   0.3 3.15e+03    -  1.43e-02 2.47e-03f  1
  35r 3.8411223e+04 2.15e+00 9.84e+02   0.3 7.23e+02    -  1.02e-01 1.30e-02f  1
  36r 3.8411240e+04 2.12e+00 9.59e+02   0.3 6.26e+02    -  1.01e-01 2.51e-02f  1
  37r 3.8411262e+04 2.05e+00 9.26e+02   0.3 6.93e+02    -  7.92e-02 3.40e-02f  1
  38r 3.8411262e+04 1.29e+00 8.09e+02   0.3 2.46e+00   2.0 2.53e-01 1.72e-01f  1
  39  3.8410610e+04 1.29e+00 3.05e+04  -1.0 9.86e+07    -  9.16e-02 2.98e-06f  1
iter    objective    inf_pr   inf_du lg(mu)  ||d||  lg(rg) alpha_du alpha_pr  ls
  40  3.1869683e+04 1.27e+00 2.85e+08  -1.0 2.12e+08    -  7.95e-03 1.29e-02f  1
  41  2.9750611e+04 1.33e+00 3.16e+08  -1.0 1.10e+08    -  1.43e-04 7.39e-03f  3
  42  2.7403289e+04 1.25e+00 3.32e+08  -1.0 9.43e+07    -  1.88e-04 1.14e-02f  2
  43  2.6039607e+04 1.24e+00 2.95e+08  -1.0 9.57e+07    -  2.42e-02 1.15e-02f  1
  44  2.5959000e+04 1.24e+00 2.95e+08  -1.0 7.96e+07    -  3.10e-01 5.60e-04f  1
  45  2.3328145e+04 1.24e+00 2.75e+08  -1.0 3.01e+08    -  2.08e-03 4.55e-03f  3
  46  2.3328126e+04 1.24e+00 2.75e+08  -1.0 3.87e+07  -0.9 8.16e-05 9.23e-07H  1
  47  2.3322852e+04 1.23e+00 6.00e+08  -1.0 3.87e+07  -1.4 1.53e-04 2.46e-04f  1
  48  2.3321848e+04 1.23e+00 2.32e+09  -1.0 3.61e+07  -1.9 1.07e-02 3.93e-05f  2
  49  2.3318613e+04 1.23e+00 2.82e+09  -1.0 3.83e+07  -2.3 9.31e-03 1.44e-04f  2
iter    objective    inf_pr   inf_du lg(mu)  ||d||  lg(rg) alpha_du alpha_pr  ls
  50  2.3294245e+04 1.23e+00 2.80e+09  -1.0 3.96e+07  -2.8 6.86e-05 1.19e-03f  5
  51r 2.3294245e+04 1.23e+00 1.00e+03   0.1 0.00e+00  -1.5 0.00e+00 2.58e-07R 14
  52r 2.3294244e+04 1.00e+00 1.01e+03   0.1 2.54e+03    -  3.35e-03 1.02e-03f  1
  53r 2.3294244e+04 1.00e+00 9.99e+02   0.0 0.00e+00    -  0.00e+00 4.22e-07R  2
  54r 2.3294244e+04 9.97e-01 9.96e+02   0.0 1.00e+03    -  6.26e-03 2.73e-03f  1
  55r 2.3294244e+04 1.03e+00 9.88e+02   0.0 7.28e+02    -  6.87e-03 8.42e-03f  1
  56r 2.3294243e+04 9.91e-01 9.81e+02   0.0 4.09e+02    -  1.72e-02 6.71e-03f  1
  57r 2.3294244e+04 9.51e-01 9.69e+02   0.0 1.28e+03    -  2.01e-02 1.27e-02f  1
  58r 2.3294243e+04 1.07e+00 9.64e+02   0.0 7.82e+02    -  4.53e-03 2.03e-02f  1
  59r 2.3294243e+04 1.07e+00 9.63e+02   0.0 2.31e+03    -  7.38e-04 2.15e-04f  1
iter    objective    inf_pr   inf_du lg(mu)  ||d||  lg(rg) alpha_du alpha_pr  ls
  60r 2.3294243e+04 1.09e+00 9.74e+02   0.0 1.80e+03    -  4.04e-04 5.35e-03f  1
  61r 2.3294243e+04 1.10e+00 1.02e+03   0.0 5.28e+02    -  4.80e-02 1.47e-03f  1
  62r 2.3294243e+04 1.21e+00 9.90e+02   0.0 3.72e+02    -  5.50e-02 2.88e-02f  1
  63r 2.3294244e+04 1.36e+00 9.42e+02   0.0 2.60e+02    -  2.84e-02 5.08e-02f  1
  64r 2.3294244e+04 1.48e+00 8.81e+02   0.0 1.06e+02    -  9.49e-02 5.99e-02f  1
  65r 2.3294243e+04 1.59e+00 8.90e+02   0.0 1.14e+02    -  3.86e-02 1.28e-01f  1
  66r 2.3294244e+04 1.60e+00 8.88e+02   0.0 1.08e+02    -  9.86e-03 2.10e-02f  1
  67r 2.3294244e+04 1.63e+00 6.93e+02   0.0 1.55e+02    -  1.91e-01 7.48e-02f  1
  68r 2.3294244e+04 1.63e+00 8.56e+02   0.0 5.04e+00   0.0 6.37e-02 2.79e-02f  1
  69r 2.3294244e+04 1.63e+00 8.51e+02   0.0 5.34e+00   0.4 3.02e-02 2.72e-02h  1
iter    objective    inf_pr   inf_du lg(mu)  ||d||  lg(rg) alpha_du alpha_pr  ls
  70r 2.3294244e+04 1.63e+00 6.38e+02   0.0 1.43e+01  -0.1 2.77e-02 6.79e-02f  1
  71r 2.3294244e+04 1.64e+00 1.48e+03   0.0 2.40e+00   0.4 4.10e-01 2.41e-01f  1
  72r 2.3294244e+04 1.64e+00 3.78e+02   0.0 1.09e+00   0.8 1.11e-01 2.80e-01f  1
  73r 2.3294244e+04 1.64e+00 1.43e+03   0.0 3.58e-01   3.0 7.37e-01 3.80e-01f  1
  74r 2.3294244e+04 1.63e+00 3.59e+02   0.0 1.53e-01   2.6 3.36e-01 5.60e-01f  1
  75r 2.3294244e+04 1.62e+00 4.57e+02   0.0 9.75e-02   3.0 9.90e-01 5.46e-01f  1
  76r 2.3294244e+04 1.62e+00 4.56e+02   0.0 5.05e+01   2.5 3.07e-03 3.01e-03f  1
  77r 2.3294244e+04 1.61e+00 5.50e+01   0.0 6.45e-02   2.9 9.90e-01 1.00e+00f  1
  78r 2.3294244e+04 1.60e+00 6.15e+01   0.0 2.68e-02   3.4 9.90e-01 1.00e+00f  1
  79r 2.3294244e+04 1.60e+00 7.03e+01   0.0 1.16e-02   3.8 1.00e+00 1.00e+00f  1
iter    objective    inf_pr   inf_du lg(mu)  ||d||  lg(rg) alpha_du alpha_pr  ls
  80r 2.3294244e+04 1.59e+00 1.40e+02   0.0 6.26e-02   3.3 1.00e+00 1.00e+00f  1
  81r 2.3294244e+04 1.59e+00 1.86e+02   0.0 3.45e-02   3.7 1.00e+00 1.00e+00f  1
  82r 2.3294244e+04 1.59e+00 3.56e+02   0.0 2.11e-01   3.3 8.08e-01 8.77e-01f  1
  83r 2.3294244e+04 1.59e+00 5.34e+02   0.0 1.11e-01   3.7 1.00e+00 1.00e+00f  1
  84r 2.3294244e+04 1.58e+00 6.23e+02   0.0 4.83e-01   3.2 3.86e-01 3.76e-01f  1
  85r 2.3294244e+04 1.58e+00 1.29e+03   0.0 4.03e-02   2.7 1.00e+00 5.16e-02h  1
  86r 2.3294244e+04 1.53e+00 1.24e+01   0.0 4.99e-02   2.2 1.00e+00 1.00e+00f  1
  87r 2.3294244e+04 1.51e+00 4.27e+01  -0.7 3.39e-02   2.7 8.22e-01 7.11e-01f  1
  88r 2.3294244e+04 1.50e+00 1.99e+01  -0.7 1.56e-02   3.1 1.00e+00 1.00e+00f  1
  89r 2.3294244e+04 1.40e+00 6.23e+01  -0.7 2.68e-01   2.6 3.27e-01 3.80e-01f  1
iter    objective    inf_pr   inf_du lg(mu)  ||d||  lg(rg) alpha_du alpha_pr  ls
  90r 2.3294244e+04 1.31e+00 9.98e+01  -0.7 8.90e-02   3.0 1.00e+00 1.00e+00f  1
  91r 2.3294244e+04 9.60e-01 2.75e+02  -0.7 3.50e+00   2.6 8.17e-02 1.01e-01f  1
  92r 2.3294244e+04 7.04e-01 9.81e+02  -0.7 3.11e-01   3.0 3.24e-01 1.00e+00f  1
  93  1.9910412e+04 8.23e-01 2.36e+07  -1.0 1.70e+08    -  1.66e-03 1.31e-02f  1
  94  1.9910372e+04 8.23e-01 2.38e+07  -1.0 5.81e+07  -2.0 4.77e-03 1.45e-05f  3
  95r 1.9910372e+04 8.23e-01 9.99e+02  -0.1 0.00e+00  -2.4 0.00e+00 3.31e-07R  8
  96r 1.9910372e+04 7.62e-01 9.97e+02  -0.1 1.13e+03    -  1.12e-02 2.50e-03f  1
  97r 1.9910372e+04 8.83e-01 9.88e+02  -0.1 8.75e+02    -  2.75e-02 9.17e-03f  1
  98r 1.9910372e+04 8.74e-01 9.77e+02  -0.1 5.75e+02    -  1.51e-01 1.11e-02f  1
  99r 1.9910364e+04 8.48e-01 1.13e+03  -0.1 7.72e+01    -  4.17e-01 1.76e-01f  1
iter    objective    inf_pr   inf_du lg(mu)  ||d||  lg(rg) alpha_du alpha_pr  ls
 100r 1.9910353e+04 8.52e-01 1.24e+03  -0.1 9.21e+01    -  6.18e-01 2.66e-01f  1
 101r 1.9910338e+04 8.47e-01 9.14e+02  -0.1 8.92e+01    -  5.70e-01 3.42e-01f  1
 102r 1.9910302e+04 8.42e-01 5.28e+01  -0.1 7.63e+01    -  9.46e-01 1.00e+00f  1
 103r 1.9910298e+04 8.42e-01 1.37e+00  -0.1 1.56e+01    -  9.90e-01 1.00e+00f  1
 104r 1.9910298e+04 8.42e-01 4.28e-01  -0.1 5.30e+00    -  9.90e-01 1.00e+00f  1
 105r 1.9910298e+04 8.42e-01 3.81e-02  -0.1 1.14e+00    -  9.92e-01 1.00e+00h  1
 106r 1.9910302e+04 8.43e-01 2.63e+01  -1.5 3.95e+01    -  6.67e-01 5.96e-01f  1
 107r 1.9910232e+04 8.43e-01 2.70e+02  -1.5 6.36e+02    -  7.48e-01 2.55e-01f  1
 108r 1.9910156e+04 8.44e-01 3.11e+02  -1.5 4.75e+02    -  1.00e+00 3.66e-01f  1
 109r 1.9910025e+04 8.44e-01 3.12e-01  -1.5 3.02e+02    -  1.00e+00 1.00e+00f  1
iter    objective    inf_pr   inf_du lg(mu)  ||d||  lg(rg) alpha_du alpha_pr  ls
 110r 1.9910025e+04 8.44e-01 1.68e+00  -3.3 2.86e+01    -  8.37e-01 8.23e-01f  1
 111r 1.9909569e+04 8.44e-01 4.44e+02  -3.3 6.68e+03    -  7.90e-01 1.88e-01f  1
 112r 1.9909569e+04 8.44e-01 4.87e+02  -3.3 2.33e-02   4.0 2.46e-02 4.71e-01f  1
 113r 1.9909569e+04 8.43e-01 1.06e+02  -3.3 2.80e-02   3.5 8.10e-01 8.59e-01f  1
 114r 1.9909569e+04 8.43e-01 9.13e+01  -3.3 4.15e-02   3.0 1.00e+00 7.58e-01h  1
 115r 1.9909569e+04 8.43e-01 2.81e+02  -3.3 5.05e-02   2.6 1.00e+00 5.28e-01f  1
 116r 1.9909569e+04 8.43e-01 6.89e+01  -3.3 6.65e-02   2.1 1.00e+00 7.72e-01f  1
 117r 1.9909543e+04 8.43e-01 8.57e+02  -3.3 5.46e+03    -  1.00e+00 1.35e-02f  1
 118r 1.9908957e+04 8.43e-01 8.05e+02  -3.3 5.39e+03    -  1.00e+00 2.99e-01f  1
 119r 1.9908957e+04 8.43e-01 7.34e+02  -3.3 3.66e-02   2.5 2.13e-01 1.74e-01f  1
iter    objective    inf_pr   inf_du lg(mu)  ||d||  lg(rg) alpha_du alpha_pr  ls
 120r 1.9908957e+04 8.43e-01 7.45e+02  -3.3 3.30e-02   2.0 3.07e-01 9.64e-01h  1
 121r 1.9908957e+04 8.43e-01 4.19e+02  -3.3 7.59e-02   2.5 1.00e+00 4.96e-01f  1
 122r 1.9908957e+04 8.43e-01 2.14e+02  -3.3 3.29e-02   2.9 8.27e-01 6.46e-01f  1
 123r 1.9908957e+04 8.43e-01 6.25e+02  -3.3 9.31e-02   2.4 1.00e+00 5.82e-03h  1
 124r 1.9908957e+04 8.43e-01 4.20e+00  -3.3 4.84e-02   1.9 1.00e+00 1.00e+00h  1
 125r 1.9908926e+04 8.43e-01 6.22e+02  -3.3 2.05e+03    -  1.00e+00 1.82e-02F  1
 126r 1.9908926e+04 8.43e-01 1.52e+00  -3.3 1.97e-02   1.5 1.00e+00 1.00e+00F  1
 127r 1.9908926e+04 8.43e-01 1.63e+00  -3.3 2.16e-02   1.9 1.00e+00 1.00e+00h  1
 128r 1.9908817e+04 8.43e-01 7.28e+02  -3.3 2.02e+03    -  1.00e+00 6.47e-02f  1
 129r 1.9907683e+04 8.42e-01 2.09e+02  -3.3 1.89e+03    -  1.00e+00 7.15e-01f  1
iter    objective    inf_pr   inf_du lg(mu)  ||d||  lg(rg) alpha_du alpha_pr  ls
 130r 1.9907483e+04 8.42e-01 1.29e+02  -3.3 5.62e+02    -  1.00e+00 4.47e-01f  1
 131r 1.9907483e+04 8.42e-01 1.15e+00  -3.3 2.35e-02   1.4 1.00e+00 1.00e+00f  1
 132r 1.9907403e+04 8.42e-01 4.05e+02  -3.3 3.07e+02    -  1.00e+00 3.23e-01h  1
 133r 1.9907403e+04 8.42e-01 4.07e+00  -3.3 3.26e-02   0.9 1.00e+00 1.00e+00F  1
 134r 1.9907236e+04 8.42e-01 1.03e+00  -3.3 2.13e+02    -  1.00e+00 1.00e+00h  1
 135r 1.9907236e+04 8.42e-01 2.29e+00  -3.3 6.72e-02   1.4 1.00e+00 1.00e+00f  1
 136r 1.9907236e+04 8.42e-01 3.49e+00  -3.3 5.28e-02   1.8 1.00e+00 1.00e+00f  1
 137r 1.9907236e+04 8.42e-01 6.37e+00  -3.3 3.92e-02   2.2 1.00e+00 1.00e+00f  1
 138r 1.9907236e+04 8.42e-01 1.21e+00  -3.3 1.03e-01   1.7 1.00e+00 1.00e+00f  1
 139r 1.9907236e+04 8.42e-01 6.69e+00  -3.3 7.34e-02   1.3 3.37e-01 1.00e+00H  1
iter    objective    inf_pr   inf_du lg(mu)  ||d||  lg(rg) alpha_du alpha_pr  ls
 140r 1.9907236e+04 8.42e-01 1.12e-01  -3.3 4.87e-02   0.8 1.00e+00 1.00e+00H  1
 141r 1.9907236e+04 8.42e-01 6.06e+00  -3.3 6.31e-02   0.3 1.00e+00 1.25e-01h  4
 142r 1.9907236e+04 8.42e-01 3.97e+00  -3.3 5.26e-02   0.7 1.00e+00 6.25e-02h  5
 143r 1.9907236e+04 8.42e-01 3.36e-01  -3.3 5.03e-02   0.3 1.00e+00 1.00e+00H  1
 144r 1.9907236e+04 8.42e-01 1.14e+00  -3.3 1.09e-01   0.7 1.00e+00 9.77e-04h 11
 145r 1.9907236e+04 8.42e-01 3.86e-01  -3.3 7.15e-02   1.1 1.00e+00 1.00e+00f  1
 146r 1.9907236e+04 8.42e-01 8.85e-01  -3.3 2.03e-01   0.6 1.00e+00 3.91e-03h  9
 147r 1.9907236e+04 8.42e-01 3.96e+00  -3.3 1.39e-01   1.1 1.00e+00 1.00e+00f  1
 148r 1.9907236e+04 8.42e-01 1.12e+01  -3.3 4.67e-02   2.4 1.00e+00 1.00e+00f  1
 149r 1.9907237e+04 8.42e-01 6.61e+01  -3.3 1.76e+00    -  1.00e+00 2.17e-01f  3
iter    objective    inf_pr   inf_du lg(mu)  ||d||  lg(rg) alpha_du alpha_pr  ls
 150r 1.9907237e+04 8.42e-01 1.21e+01  -3.3 1.19e-01   1.9 1.00e+00 1.00e+00f  1
 151r 1.9907237e+04 8.42e-01 5.22e+01  -3.3 6.92e-02   2.3 1.00e+00 1.25e-01h  4
 152r 1.9907237e+04 8.42e-01 7.80e+02  -3.3 1.28e-01   1.9 1.00e+00 1.00e+00f  1
 153r 1.9907237e+04 8.42e-01 9.54e+02  -3.3 7.60e-02   3.2 6.44e-01 8.17e-03h  6
 154r 1.9907237e+04 8.42e-01 5.10e+02  -3.3 6.74e-02   2.7 1.00e+00 7.75e-01H  1
 155r 1.9907237e+04 8.42e-01 3.91e+02  -3.3 5.69e-02   2.2 1.25e-03 5.00e-01h  2
 156r 1.9907237e+04 8.42e-01 2.41e+02  -3.3 4.77e-01   1.8 6.44e-01 1.91e-01h  3
 157r 1.9907237e+04 8.42e-01 2.21e+02  -3.3 2.77e-01   2.2 1.00e+00 1.25e-01h  4
 158r 1.9907240e+04 8.42e-01 8.44e+01  -3.3 1.26e+01    -  1.00e+00 3.67e-01f  2
 159r 1.9907240e+04 8.42e-01 2.16e+02  -3.3 2.59e-01   2.6 4.62e-01 9.34e-02f  2
iter    objective    inf_pr   inf_du lg(mu)  ||d||  lg(rg) alpha_du alpha_pr  ls
 160r 1.9907240e+04 8.42e-01 1.06e+03  -3.3 3.44e+01    -  1.00e+00 3.33e-04f  3
 161r 1.9907240e+04 8.42e-01 2.38e+02  -3.3 1.41e-01   3.0 1.98e-01 5.34e-03h  6
 162r 1.9907240e+04 8.42e-01 1.28e+04  -3.3 3.33e-01   2.6 3.66e-01 2.18e-01f  1
 163r 1.9907240e+04 8.42e-01 9.37e+03  -3.3 4.36e+02    -  4.75e-04 5.52e-05h  8
 164r 1.9907240e+04 8.42e-01 9.37e+03  -3.3 9.31e-01   2.1 7.62e-01 7.63e-06h 18
 165r 1.9907240e+04 8.42e-01 8.27e+02  -3.3 1.18e+00   1.6 1.32e-02 3.35e-02h  2
 166r 1.9907240e+04 8.42e-01 2.62e+03  -3.3 9.20e-02   3.8 6.01e-04 6.24e-02h  3
 167r 1.9907241e+04 8.42e-01 2.95e+03  -3.3 8.13e+01    -  1.00e+00 1.25e-02f  5
 168r 1.9907241e+04 8.42e-01 2.80e+03  -3.3 1.90e-01   3.4 6.28e-02 2.16e-04h  9
 169r 1.9907284e+04 8.42e-01 9.18e+01  -3.3 5.62e+01    -  1.00e+00 1.00e+00s 22
iter    objective    inf_pr   inf_du lg(mu)  ||d||  lg(rg) alpha_du alpha_pr  ls
 170r 1.9907241e+04 8.42e-01 6.10e+00  -3.3 6.22e+01    -  9.01e-01 9.01e-01s 22
 171r 1.9907241e+04 8.42e-01 6.10e+00  -3.3 5.51e-04   2.9 0.00e+00 0.00e+00R  1
 172r 1.9907241e+04 8.42e-01 6.79e+00  -3.3 3.99e-03   2.4 1.00e+00 1.22e-04f 14
 173r 1.9907241e+04 8.42e-01 7.09e+00  -3.3 4.00e-03   1.9 1.00e+00 6.10e-05f 15
 174r 1.9907241e+04 8.42e-01 7.11e+00  -3.3 1.02e-02   1.4 1.00e+00 1.53e-05f 17
 175r 1.9907241e+04 8.42e-01 6.05e+00  -3.3 3.28e-02   1.0 1.00e+00 1.22e-04f 14
 176r 1.9907241e+04 8.42e-01 4.85e+00  -3.3 9.83e-02   0.5 1.00e+00 3.05e-05f 16
 177r 1.9907241e+04 8.42e-01 2.90e+03  -3.3 4.07e-01   0.0 1.00e+00 9.99e-01f  1
 178r 1.9907235e+04 8.42e-01 4.99e+02  -3.3 8.12e+00    -  6.84e-01 1.00e+00h  1
 179r 1.9907235e+04 8.42e-01 6.69e+02  -3.3 9.65e-02   2.2 1.00e+00 9.71e-01f  1
iter    objective    inf_pr   inf_du lg(mu)  ||d||  lg(rg) alpha_du alpha_pr  ls
 180r 1.9907235e+04 8.42e-01 2.33e+02  -3.3 1.22e+01   1.8 1.64e-02 2.64e-02h  4
 181r 1.9907235e+04 8.42e-01 3.05e+02  -3.3 6.55e-01   3.1 1.12e-01 5.31e-02h  3
 182r 1.9907235e+04 8.42e-01 3.15e+02  -3.3 3.95e-01   3.5 1.00e-03 1.00e+00f  1
 183r 1.9907235e+04 8.42e-01 3.92e+02  -3.3 9.47e-02   3.0 1.00e+00 3.09e-02f  1
 184r 1.9907235e+04 8.42e-01 1.28e+03  -3.3 4.16e-01   2.6 4.52e-01 1.12e-04H  1
 185r 1.9907185e+04 8.42e-01 8.77e+02  -3.3 2.61e+02    -  1.00e+00 2.55e-01f  1
 186r 1.9907185e+04 8.42e-01 1.68e+02  -3.3 3.83e-01   2.1 3.07e-01 7.34e-01f  1
 187r 1.9907185e+04 8.42e-01 1.69e+02  -3.3 3.56e-01   1.6 1.57e-01 1.88e-02f  1
 188r 1.9907185e+04 8.42e-01 9.55e-01  -3.3 6.96e-02   1.1 1.00e+00 1.00e+00f  1
 189r 1.9907185e+04 8.42e-01 9.61e-01  -3.3 7.01e-02   0.7 1.00e+00 9.57e-01f  1
iter    objective    inf_pr   inf_du lg(mu)  ||d||  lg(rg) alpha_du alpha_pr  ls
 190r 1.9907236e+04 8.42e-01 3.00e-01  -3.3 6.86e+01    -  1.00e+00 1.00e+00H  1
 191r 1.9907236e+04 1.02e+01 7.78e+12  -3.3 1.12e+00   0.2 1.00e+00 4.91e-01f  1
WARNING: Problem in step computation; switching to emergency mode.
 192r 1.9907236e+04 1.02e+01 7.78e+12  -3.3 1.12e+00  19.9 0.00e+00 0.00e+00R  1
WARNING: Problem in step computation; switching to emergency mode.
Restoration phase is called at point that is almost feasible,
  with constraint violation 0.000000e+00. Abort.
Restoration phase in the restoration phase failed.

Number of Iterations....: 192

                                   (scaled)                 (unscaled)
Objective...............:   1.9907236489614570e+04    1.9907236489614570e+04
Dual infeasibility......:   7.7776655468881494e+12    7.7776655468881494e+12
Constraint violation....:   1.0198866421576092e+01    1.0198866421576092e+01
Complementarity.........:   4.6115420383890579e-04    4.6115420383890579e-04
Overall NLP error.......:   5.1895461654308896e+12    7.7776655468881494e+12


Number of objective function evaluations             = 634
Number of objective gradient evaluations             = 55
Number of equality constraint evaluations            = 635
Number of inequality constraint evaluations          = 0
Number of equality constraint Jacobian evaluations   = 198
Number of inequality constraint Jacobian evaluations = 0
Number of Lagrangian Hessian evaluations             = 193
Total CPU secs in IPOPT (w/o function evaluations)   =      0.408
Total CPU secs in NLP function evaluations           =      6.940

EXIT: Restoration Failed!
